(set-logic HORN)
(declare-datatypes ((Nat_0 0)) (((Z_2 ) (Z_3 (unS_0 Nat_0)))))
(declare-fun diseqNat_0 (Nat_0 Nat_0) Bool)
(declare-fun add_0 (Nat_0 Nat_0 Nat_0) Bool)
(declare-fun minus_0 (Nat_0 Nat_0 Nat_0) Bool)
(declare-fun ge_0 (Nat_0 Nat_0) Bool)
(declare-fun lt_0 (Nat_0 Nat_0) Bool)
(declare-fun div_0 (Nat_0 Nat_0 Nat_0) Bool)
(declare-fun mod_0 (Nat_0 Nat_0 Nat_0) Bool)
(declare-datatypes ((B_0 0)) (((I_0 ) (O_0 ))))
(declare-datatypes ((list_0 0)) (((nil_0 ) (cons_0 (head_0 B_0) (tail_0 list_0)))))
(declare-fun half_0 (Nat_0 Nat_0) Bool)
(declare-fun shw_0 (list_0 Nat_0) Bool)
(declare-fun double_0 (Nat_0 Nat_0) Bool)
(declare-fun rd_0 (Nat_0 list_0) Bool)
(declare-fun x_4 (list_0 list_0 list_0) Bool)
(declare-fun x_6 (Nat_0 Nat_0 Nat_0) Bool)
(assert (forall ((x_48 Nat_0))
	(diseqNat_0 Z_2 (Z_3 x_48))))
(assert (forall ((x_49 Nat_0))
	(diseqNat_0 (Z_3 x_49) Z_2)))
(assert (forall ((x_50 Nat_0) (x_51 Nat_0))
	(=> (diseqNat_0 x_50 x_51) (diseqNat_0 (Z_3 x_50) (Z_3 x_51)))))
(assert (forall ((y_4 Nat_0))
	(add_0 y_4 Z_2 y_4)))
(assert (forall ((r_0 Nat_0) (x_38 Nat_0) (y_4 Nat_0))
	(=> (add_0 r_0 x_38 y_4) (add_0 (Z_3 r_0) (Z_3 x_38) y_4))))
(assert (forall ((y_4 Nat_0))
	(minus_0 Z_2 Z_2 y_4)))
(assert (forall ((r_0 Nat_0) (x_38 Nat_0) (y_4 Nat_0))
	(=> (minus_0 r_0 x_38 y_4) (minus_0 (Z_3 r_0) (Z_3 x_38) y_4))))
(assert (forall ((y_4 Nat_0))
	(ge_0 y_4 Z_2)))
(assert (forall ((x_38 Nat_0) (y_4 Nat_0))
	(=> (ge_0 x_38 y_4) (ge_0 (Z_3 x_38) (Z_3 y_4)))))
(assert (forall ((y_4 Nat_0))
	(lt_0 Z_2 (Z_3 y_4))))
(assert (forall ((x_38 Nat_0) (y_4 Nat_0))
	(=> (lt_0 x_38 y_4) (lt_0 (Z_3 x_38) (Z_3 y_4)))))
(assert (forall ((x_38 Nat_0) (y_4 Nat_0))
	(=> (lt_0 x_38 y_4) (div_0 Z_2 x_38 y_4))))
(assert (forall ((r_0 Nat_0) (x_38 Nat_0) (y_4 Nat_0) (z_4 Nat_0))
	(=> (and (ge_0 x_38 y_4) (minus_0 z_4 x_38 y_4) (div_0 r_0 z_4 y_4)) (div_0 (Z_3 r_0) x_38 y_4))))
(assert (forall ((x_38 Nat_0) (y_4 Nat_0))
	(=> (lt_0 x_38 y_4) (mod_0 x_38 x_38 y_4))))
(assert (forall ((r_0 Nat_0) (x_38 Nat_0) (y_4 Nat_0) (z_4 Nat_0))
	(=> (and (ge_0 x_38 y_4) (minus_0 z_4 x_38 y_4) (mod_0 r_0 z_4 y_4)) (mod_0 r_0 x_38 y_4))))
(assert (forall ((x_39 Nat_0) (x_0 Nat_0))
	(=> (div_0 x_39 x_0 (Z_3 (Z_3 Z_2))) (half_0 x_39 x_0))))
(assert (shw_0 nil_0 Z_2))
(assert (forall ((x_12 Nat_0) (x_13 list_0) (x_1 Nat_0))
	(=> (and (diseqNat_0 x_1 Z_2) (half_0 x_12 x_1) (shw_0 x_13 x_12) (mod_0 Z_2 x_1 (Z_3 (Z_3 Z_2)))) (shw_0 (cons_0 O_0 x_13) x_1))))
(assert (shw_0 nil_0 Z_2))
(assert (forall ((x_41 Nat_0) (x_16 Nat_0) (x_17 list_0) (x_1 Nat_0))
	(=> (and (diseqNat_0 x_1 Z_2) (diseqNat_0 x_41 Z_2) (half_0 x_16 x_1) (shw_0 x_17 x_16) (mod_0 x_41 x_1 (Z_3 (Z_3 Z_2)))) (shw_0 (cons_0 I_0 x_17) x_1))))
(assert (forall ((x_18 Nat_0) (x_2 Nat_0))
	(=> (add_0 x_18 x_2 x_2) (double_0 x_18 x_2))))
(assert (forall ((x_19 Nat_0) (x_20 Nat_0) (xs_0 list_0))
	(=> (and (rd_0 x_20 xs_0) (double_0 x_19 x_20)) (rd_0 x_19 (cons_0 O_0 xs_0)))))
(assert (forall ((x_22 Nat_0) (x_23 Nat_0) (x_24 Nat_0) (xs_0 list_0))
	(=> (and (rd_0 x_23 xs_0) (double_0 x_24 x_23) (add_0 x_22 (Z_3 Z_2) x_24)) (rd_0 x_22 (cons_0 I_0 xs_0)))))
(assert (rd_0 Z_2 nil_0))
(assert (forall ((x_27 list_0) (z_0 B_0) (xs_1 list_0) (y_1 list_0))
	(=> (x_4 x_27 xs_1 y_1) (x_4 (cons_0 z_0 x_27) (cons_0 z_0 xs_1) y_1))))
(assert (forall ((x_28 list_0))
	(x_4 x_28 nil_0 x_28)))
(assert (forall ((x_29 Nat_0) (x_30 list_0) (x_31 list_0) (x_32 list_0) (x_7 Nat_0) (y_2 Nat_0))
	(=> (and (shw_0 x_30 x_7) (shw_0 x_31 y_2) (x_4 x_32 x_30 x_31) (rd_0 x_29 x_32)) (x_6 x_29 x_7 y_2))))
(assert (forall ((x_34 Nat_0) (x_35 Nat_0) (x_36 Nat_0) (x_37 Nat_0) (x_8 Nat_0) (y_3 Nat_0) (z_1 Nat_0))
	(=> (and (diseqNat_0 x_35 x_37) (x_6 x_34 y_3 z_1) (x_6 x_35 x_8 x_34) (x_6 x_36 x_8 y_3) (x_6 x_37 x_36 z_1)) false)))
(check-sat)
(get-model)
